c Sample 3-CNF over 3 variables and 8 clauses
c Manually generated by Michelle Aluf-Medina
c Boolean formula is: [[1,-2,3],[-1,-2,3],[-1,-2,-3],[1,2,-3],[1,2,3],[-1,2,-3],[-1,2,3],[1,-2,-3]]
c UNSATISFIABLE
c
p cnf 3 8
1 -2 3 0
-1 -2 3 0
-1 -2 -3 0
1 2 -3 0
1 2 3 0
-1 2 -3 0
-1 2 3 0
1 -2 -3 0